
Gurobi 6.5.2 (win64) logging started 07/24/16 17:27:02


Gurobi 6.5.2 (win64) logging started 07/24/16 17:27:02

Optimize a model with 1958 rows, 278 columns and 4132 nonzeros
Coefficient statistics:
  Matrix range    [1e+00, 1e+00]
  Objective range [2e+00, 3e+02]
  Bounds range    [1e+00, 1e+00]
  RHS range       [1e+00, 1e+00]
Found heuristic solution: objective -0
Presolve removed 1835 rows and 34 columns
Presolve time: 0.00s
Presolved: 123 rows, 244 columns, 811 nonzeros
Variable types: 0 continuous, 244 integer (244 binary)

Root relaxation: objective 1.627000e+03, 116 iterations, 0.00 seconds

    Nodes    |    Current Node    |     Objective Bounds      |     Work
 Expl Unexpl |  Obj  Depth IntInf | Incumbent    BestBd   Gap | It/Node Time

*    0     0               0    1627.0000000 1627.00000  0.00%     -    0s

Explored 0 nodes (116 simplex iterations) in 0.00 seconds
Thread count was 8 (of 8 available processors)

Optimal solution found (tolerance 1.00e-04)
Best objective 1.627000000000e+03, best bound 1.627000000000e+03, gap 0.0%

Wrote requested result file 'H1\instance11\\Results11.lp'

